% Logging successfully configured
%%%mzn-stat: initTime=0.001614407
%%%mzn-stat: objective=822
%%%mzn-stat: nodes=310
%%%mzn-stat: restarts=0
%%%mzn-stat: peakDepth=88
%%%mzn-stat: solveTime=0.002675666
%%%mzn-stat: variables=220
%%%mzn-stat: propagators=137
%%%mzn-stat: failures=68
%%%mzn-stat: propagations=2351
%%%mzn-stat: nogoods=68
%%%mzn-stat: numAtomicConstraintsPropagated=0
%%%mzn-stat: allDifferentNumber1TotalHallSetSize=438
%%%mzn-stat: allDifferentNumber1NumberOfConflicts=67
%%%mzn-stat: allDifferentNumber1MaxHallSetSize=19
%%%mzn-stat: allDifferentNumber1PropagationsTotal=442
%%%mzn-stat: allDifferentNumber1PropagationsThatFoundConflict=67
%%%mzn-stat: circuitNumber2PropagationsThatFoundConflict=1
%%%mzn-stat: circuitNumber2TotalFixedEdgesAtConflict=14
%%%mzn-stat: circuitNumber2NumberOfConflicts=1
%%%mzn-stat: circuitNumber2PropagationsThatPruned=11
%%%mzn-stat: circuitNumber2PropagationsTotal=241
%%%mzn-stat: AverageConflictSize=4.970588235294118
%%%mzn-stat: NumUnitNogoodsLearned=0
%%%mzn-stat: AverageLearnedNogoodLength=5.205882352941177
%%%mzn-stat: AverageBacktrackAmount=0
%%%mzn-stat: AverageLbd=4.264705882352941
%%%mzn-stat: 2AutonomousSearchNumBackupCalled=75
%%%mzn-stat: 2AutonomousSearchNumPredicatesRemoved=0
%%%mzn-stat: 2AutonomousSearchNumCalls=76
%%%mzn-stat: 2AutonomousSearchNumPredicatesAdded=215
%%%mzn-stat: 2AutonomousSearchAverageSizeOfHeap=2.8289473684210527
%%%mzn-stat: 2AutonomousSearchNumAssignedPredicatesEncountered=215
%%%mzn-stat-end
maxleg = 822;
succ = array1d(1..20,[4, 5, 7, 6, 16, 14, 15, 2, 13, 11, 17, 18, 3, 12, 8, 1, 19, 20, 9, 10]);
% time elapsed: 0.35 s
----------
%%%mzn-stat: initTime=0.001614407
%%%mzn-stat: objective=377
%%%mzn-stat: nodes=455
%%%mzn-stat: restarts=0
%%%mzn-stat: peakDepth=88
%%%mzn-stat: solveTime=0.003570245
%%%mzn-stat: variables=220
%%%mzn-stat: propagators=137
%%%mzn-stat: failures=79
%%%mzn-stat: propagations=3082
%%%mzn-stat: nogoods=79
%%%mzn-stat: numAtomicConstraintsPropagated=0
%%%mzn-stat: allDifferentNumber1TotalHallSetSize=460
%%%mzn-stat: allDifferentNumber1NumberOfConflicts=78
%%%mzn-stat: allDifferentNumber1MaxHallSetSize=19
%%%mzn-stat: allDifferentNumber1PropagationsTotal=565
%%%mzn-stat: allDifferentNumber1PropagationsThatFoundConflict=78
%%%mzn-stat: circuitNumber2PropagationsThatFoundConflict=1
%%%mzn-stat: circuitNumber2TotalFixedEdgesAtConflict=14
%%%mzn-stat: circuitNumber2NumberOfConflicts=1
%%%mzn-stat: circuitNumber2PropagationsThatPruned=16
%%%mzn-stat: circuitNumber2PropagationsTotal=319
%%%mzn-stat: AverageConflictSize=4.556962025316456
%%%mzn-stat: NumUnitNogoodsLearned=0
%%%mzn-stat: AverageLearnedNogoodLength=4.7594936708860756
%%%mzn-stat: AverageBacktrackAmount=0
%%%mzn-stat: AverageLbd=3.949367088607595
%%%mzn-stat: 2AutonomousSearchNumBackupCalled=137
%%%mzn-stat: 2AutonomousSearchNumPredicatesRemoved=0
%%%mzn-stat: 2AutonomousSearchNumCalls=139
%%%mzn-stat: 2AutonomousSearchNumPredicatesAdded=237
%%%mzn-stat: 2AutonomousSearchAverageSizeOfHeap=3.1079136690647484
%%%mzn-stat: 2AutonomousSearchNumAssignedPredicatesEncountered=432
%%%mzn-stat-end
maxleg = 377;
succ = array1d(1..20,[4, 8, 7, 6, 12, 14, 9, 1, 13, 11, 17, 16, 2, 5, 3, 18, 19, 20, 15, 10]);
% time elapsed: 0.35 s
----------
==========
% time elapsed: 0.36 s
%%%mzn-stat: initTime=0.001614407
%%%mzn-stat: objective=377
%%%mzn-stat: nodes=1048
%%%mzn-stat: restarts=0
%%%mzn-stat: peakDepth=88
%%%mzn-stat: solveTime=0.021134236
%%%mzn-stat: variables=220
%%%mzn-stat: propagators=137
%%%mzn-stat: failures=489
%%%mzn-stat: propagations=14426
%%%mzn-stat: nogoods=489
%%%mzn-stat: numAtomicConstraintsPropagated=0
%%%mzn-stat: allDifferentNumber1TotalHallSetSize=2854
%%%mzn-stat: allDifferentNumber1NumberOfConflicts=434
%%%mzn-stat: allDifferentNumber1MaxHallSetSize=19
%%%mzn-stat: allDifferentNumber1PropagationsTotal=2332
%%%mzn-stat: allDifferentNumber1PropagationsThatFoundConflict=434
%%%mzn-stat: circuitNumber2PropagationsThatFoundConflict=17
%%%mzn-stat: circuitNumber2TotalFixedEdgesAtConflict=188
%%%mzn-stat: circuitNumber2NumberOfConflicts=17
%%%mzn-stat: circuitNumber2PropagationsThatPruned=357
%%%mzn-stat: circuitNumber2PropagationsTotal=1311
%%%mzn-stat: AverageConflictSize=6.644171779141105
%%%mzn-stat: NumUnitNogoodsLearned=1
%%%mzn-stat: AverageLearnedNogoodLength=9.503067484662576
%%%mzn-stat: AverageBacktrackAmount=0
%%%mzn-stat: AverageLbd=4.674846625766871
%%%mzn-stat: 2AutonomousSearchNumBackupCalled=137
%%%mzn-stat: 2AutonomousSearchNumPredicatesRemoved=0
%%%mzn-stat: 2AutonomousSearchNumCalls=139
%%%mzn-stat: 2AutonomousSearchNumPredicatesAdded=767
%%%mzn-stat: 2AutonomousSearchAverageSizeOfHeap=3.1079136690647484
%%%mzn-stat: 2AutonomousSearchNumAssignedPredicatesEncountered=432
%%%mzn-stat-end
